<number of tasks>
20


<number of equipment>
5


<cycle time>
1000


<investment costs>
1,10324
2,16953
3,12435
4,11442
5,5712


<task times>
1,424,508,485,-1,-1
2,-1,520,594,613,-1
3,609,491,558,-1,-1
4,575,511,497,-1,-1
5,-1,539,-1,-1,690
6,-1,406,491,509,-1
7,508,509,543,-1,-1
8,618,447,554,-1,-1
9,-1,602,598,638,-1
10,618,460,574,-1,-1
11,-1,536,-1,-1,605
12,-1,510,541,576,-1
13,604,488,466,-1,-1
14,593,516,581,-1,-1
15,-1,513,596,648,-1
16,-1,502,-1,-1,657
17,-1,649,617,652,-1
18,620,513,580,-1,-1
19,542,507,544,-1,-1
20,-1,512,579,571,-1


<precedence relations>
1,8
2,8
3,4
3,5
3,6
3,7
4,8
5,8
6,20
7,8
7,9
7,10
7,11
8,12
8,13
8,14
8,15
8,16
9,17
10,17
10,18
11,19
12,17
12,18
17,19
17,20
18,20


<task types>
1,3
2,2
3,3
4,3
5,1
6,2
7,3
8,3
9,2
10,3
11,1
12,2
13,3
14,3
15,2
16,1
17,2
18,3
19,3
20,2


<line depot>
1,9
2,0
3,0
4,7
5,3


<processing costs>
1,7200
2,21600
3,14400
4,7200
5,7200


<saving costs>
1,1032
2,1695
3,1243
4,1144
5,571


<end>
